nN = 5;
nR = 20;
nH = 1;

a = [[22, 19, 13, 18, 24, 21, 24, 22, 11, 19, 15, 15, 18, 11, 14, 11, 21, 14, 25, 22], [13, 16, 12, 18, 13, 13, 16, 12, 19, 21, 18, 25, 20, 22, 25, 22, 16, 19, 18, 18], [21, 20, 20, 19, 10, 22, 22, 22, 23, 23, 17, 13, 13, 20, 14, 14, 24, 10, 25, 13], [22, 14, 18, 24, 11, 14, 10, 21, 15, 19, 23, 23, 13, 23, 20, 19, 19, 18, 18, 15], [22, 12, 25, 20, 16, 16, 19, 11, 15, 21, 11, 19, 21, 24, 20, 16, 11, 12, 15, 10]];
c = [[[0, 0, 0, 0, 0, 0, 0, 0, 0, 0, 0, 0, 0, 0, 0, 0, 0, 0, 0, 0], [39, 36, 32, 46, 35, 30, 34, 32, 50, 50, 40, 36, 46, 33, 45, 42, 49, 50, 42, 49], [38, 43, 30, 50, 49, 40, 38, 32, 43, 48, 44, 35, 39, 37, 43, 50, 35, 33, 44, 45], [35, 39, 42, 31, 41, 33, 34, 31, 31, 41, 40, 31, 44, 50, 42, 36, 45, 45, 49, 45], [34, 43, 34, 33, 34, 47, 34, 47, 35, 41, 35, 39, 47, 36, 35, 47, 33, 38, 39, 38]], [[0, 0, 0, 0, 0, 0, 0, 0, 0, 0, 0, 0, 0, 0, 0, 0, 0, 0, 0, 0], [0, 0, 0, 0, 0, 0, 0, 0, 0, 0, 0, 0, 0, 0, 0, 0, 0, 0, 0, 0], [38, 31, 42, 35, 49, 41, 43, 44, 33, 35, 38, 48, 33, 39, 34, 45, 36, 33, 38, 38], [30, 43, 50, 49, 50, 32, 47, 45, 37, 36, 32, 31, 33, 41, 44, 30, 39, 35, 36, 30], [32, 43, 44, 30, 49, 32, 33, 42, 45, 44, 49, 49, 37, 48, 43, 38, 37, 40, 31, 36]], [[0, 0, 0, 0, 0, 0, 0, 0, 0, 0, 0, 0, 0, 0, 0, 0, 0, 0, 0, 0], [0, 0, 0, 0, 0, 0, 0, 0, 0, 0, 0, 0, 0, 0, 0, 0, 0, 0, 0, 0], [0, 0, 0, 0, 0, 0, 0, 0, 0, 0, 0, 0, 0, 0, 0, 0, 0, 0, 0, 0], [43, 49, 42, 36, 37, 37, 46, 43, 50, 35, 41, 47, 35, 35, 30, 35, 31, 31, 35, 45], [44, 50, 32, 49, 34, 45, 46, 46, 49, 31, 39, 47, 37, 41, 48, 35, 34, 32, 49, 36]], [[0, 0, 0, 0, 0, 0, 0, 0, 0, 0, 0, 0, 0, 0, 0, 0, 0, 0, 0, 0], [0, 0, 0, 0, 0, 0, 0, 0, 0, 0, 0, 0, 0, 0, 0, 0, 0, 0, 0, 0], [0, 0, 0, 0, 0, 0, 0, 0, 0, 0, 0, 0, 0, 0, 0, 0, 0, 0, 0, 0], [0, 0, 0, 0, 0, 0, 0, 0, 0, 0, 0, 0, 0, 0, 0, 0, 0, 0, 0, 0], [30, 40, 42, 39, 36, 40, 50, 44, 31, 50, 49, 42, 46, 46, 40, 33, 37, 33, 39, 39]], [[0, 0, 0, 0, 0, 0, 0, 0, 0, 0, 0, 0, 0, 0, 0, 0, 0, 0, 0, 0], [0, 0, 0, 0, 0, 0, 0, 0, 0, 0, 0, 0, 0, 0, 0, 0, 0, 0, 0, 0], [0, 0, 0, 0, 0, 0, 0, 0, 0, 0, 0, 0, 0, 0, 0, 0, 0, 0, 0, 0], [0, 0, 0, 0, 0, 0, 0, 0, 0, 0, 0, 0, 0, 0, 0, 0, 0, 0, 0, 0], [0, 0, 0, 0, 0, 0, 0, 0, 0, 0, 0, 0, 0, 0, 0, 0, 0, 0, 0, 0]]];

q = [[[18], [9], [14], [10], [18], [18], [12], [22], [19], [15], [21], [20], [7], [14], [15], [6], [13], [15], [18], [15]], [[10], [23], [23], [23], [24], [6], [14], [7], [16], [13], [23], [6], [7], [7], [21], [11], [24], [17], [16], [23]], [[15], [6], [13], [13], [18], [7], [22], [19], [18], [6], [23], [9], [10], [13], [21], [23], [24], [17], [16], [15]], [[25], [7], [13], [9], [23], [14], [20], [9], [16], [18], [22], [8], [12], [13], [9], [7], [11], [7], [9], [19]], [[15], [12], [10], [8], [22], [17], [13], [21], [11], [10], [6], [20], [17], [11], [10], [24], [21], [18], [12], [7]]];
Q = [[49], [51], [49], [43], [46]];
